$rem
	jobtype		opt
	METHOD      	b3lyp
	DFT_D		D3
	BASIS       	6-31+g	
	mem_total   	300000
	mem_static 	14000
	unrestricted	0
	scf_guess		sad	
	max_scf_cycles		200
	
$end

$molecule
-2 2
  V         0.0416236233   -0.0604074735   -0.0200426626
  S         0.2157508855    1.8227534684    1.3072366984
  S        -1.3065707411    1.1641034455   -1.4447269057
  S         1.7695890404    0.3549614174   -1.4920103601
  S         1.5781627301   -1.0120464094    1.4135207441
  S        -1.5768051018   -0.7915107101    1.4579665705
  S        -0.4451357056   -1.8864000322   -1.3443929430
  C        -0.7514426659    3.0488969322    0.5151622194
  C        -1.4606463634    2.7439751121   -0.7045187230
  C        -0.8707546197    4.3629338015    1.0586007543
  C        -2.2666023159    3.7666107874   -1.2898666566
  C         3.2173256981   -0.2010821540   -0.6771621604
  C         3.1291170830   -0.8358306012    0.6162189671
  C         4.5066031880   -0.0577734850   -1.2730532185
  C         4.3331657645   -1.2976486475    1.2275212792
  C        -1.7432598950   -2.7304094265   -0.5220366895
  C        -2.2717394306   -2.2195302812    0.7199143799
  C        -2.3153428731   -3.9206334704   -1.0624505638
  C        -2.3798106822    5.0628339777   -0.7290108326
  C        -1.6671898230    5.3671572698    0.4557359401
  S        -3.2041748331    3.4821115105   -2.7901465128
  S        -3.4315881154    6.2255317713   -1.5813607531
  S        -0.0114330651    4.8410210892    2.5547527234
  S        -1.7028204084    6.9619331317    1.2571619010
  C        -3.3575579751   -2.9161636500    1.3307940674
  C        -3.9207169335   -4.0888984025    0.7710134243
  C        -3.3886433478   -4.6015740346   -0.4367008784
  S        -1.7155053751   -4.6435716263   -2.5869219690
  S        -4.0973773937   -2.3457133949    2.8578801864
  S        -5.2846006795   -4.8323120437    1.6522010802
  S        -3.9944480107   -6.0737519753   -1.2437992946
  C         5.6030009573   -1.1480859838    0.6177586659
  C         5.6910174584   -0.5173828521   -0.6465929784
  S         4.7215573122    0.7229033971   -2.8701401728
  S         4.3264570031   -2.1015622813    2.8274543429
  S         7.0119378372   -1.7778880312    1.5147143345
  S         7.2249620162   -0.2564344809   -1.5218626657
  C         6.5106214195    0.5608249031   -2.9688558603
  S         7.4074066797    1.0924269585   -4.2246721260
  C         6.0986811402   -2.3864916639    2.9510778861
  S         6.8182812532   -3.1160751733    4.2214688887
  C        -3.9430743927    5.1172277914   -2.9152600255
  S        -4.9709304015    5.5680695190   -4.1000963307
  C        -0.5878225076    6.5448649859    2.6172876988
  S        -0.1507246095    7.6126070268    3.7716695075
  C        -5.3506156686   -3.6290531935    3.0006897053
  S        -6.4418315622   -3.7053252130    4.2117579383
  C        -2.8462310136   -6.0417535680   -2.6401478706
  S        -2.8455667601   -7.1713853000   -3.8182186159
$end


